% Minneapolis tournament for 2011 season
TInc = 1;
TMax_hours = 8;
TMax_minutes = 0;

% subjective setup
NSubjective = 3;
subj_minutes = [20, 20, 20];

% performance setup
NRounds = 3;
NTables = 6;

% judging groups
NGroups = 6;
group_counts = [15, 14, 14, 11, 10, 8];

alpha_perf_minutes = 6;
alternate_tables = 1;
perf_attempt_offset_minutes = 6;
subjective_attempt_offset_minutes = 5;

ct_minutes = 15;
pct_minutes = 45;
